(set-info :smt-lib-version 2.6)
(set-logic QF_LIA)
(set-info :source |
Alberto Griggio

|)
(set-info :category "industrial")
(set-info :status unsat)
(declare-fun z3_63_0_ () Int)
(declare-fun z3_28_0_ () Int)
(declare-fun z3_63_29_ () Int)
(declare-fun z9_63_0_ () Int)
(declare-fun z9_28_0_ () Int)
(declare-fun z9_63_29_ () Int)
(declare-fun z12_31_0_ () Int)
(declare-fun z17_30_0_ () Int)
(declare-fun z22_63_0_ () Int)
(declare-fun z22_31_0_ () Int)
(declare-fun z22_63_32_ () Int)
(declare-fun z27_31_0_ () Int)
(declare-fun z27_7_0_ () Int)
(declare-fun z27_31_8_ () Int)
(declare-fun z34_31_0_ () Int)
(declare-fun z34_0_0_ () Int)
(declare-fun z34_31_1_ () Int)
(declare-fun z9_26_0_ () Int)
(declare-fun z9_63_27_ () Int)
(declare-fun z57_31_0_ () Int)
(declare-fun z57_7_0_ () Int)
(declare-fun z57_31_8_ () Int)
(declare-fun z61_31_0_ () Int)
(declare-fun z61_0_0_ () Int)
(declare-fun z61_31_1_ () Int)
(declare-fun z67_31_0_ () Int)
(declare-fun z67_23_0_ () Int)
(declare-fun z67_31_24_ () Int)
(declare-fun z71_31_0_ () Int)
(declare-fun sigma_72_ () Int)
(declare-fun sigma_75_ () Int)
(declare-fun z80_31_0_ () Int)
(declare-fun z80_23_0_ () Int)
(declare-fun z80_31_24_ () Int)
(declare-fun z83_31_0_ () Int)
(declare-fun sigma_84_ () Int)
(declare-fun sigma_93_ () Int)
(declare-fun z57_23_0_ () Int)
(declare-fun z57_31_24_ () Int)
(declare-fun z27_23_0_ () Int)
(declare-fun z27_31_24_ () Int)
(declare-fun z100_7_0_ () Int)
(declare-fun z101_30_0_ () Int)
(declare-fun z101_22_0_ () Int)
(declare-fun z101_30_23_ () Int)
(assert (let ((?v_7 (- z67_23_0_)) (?v_1 (<= 1073741824 z17_30_0_))) (let ((?v_6 (not ?v_1)) (?v_5 (<= 2147483648 z22_31_0_)) (?v_4 (<= 2147483648 z9_28_0_))) (let ((?v_3 (not ?v_5)) (?v_0 (and (not (<= z17_30_0_ 0)) ?v_6))) (let ((?v_2 (not ?v_0))) (and (and (<= sigma_93_ 1) (<= 0 sigma_93_)) (and (and (<= sigma_84_ 1) (<= 0 sigma_84_)) (and (and (<= sigma_75_ 1) (<= 0 sigma_75_)) (and (and (<= sigma_72_ 1) (<= 0 sigma_72_)) (and (and (and (and (and (and (and (and (and (and (and (and (and (and (and (and (and (and (and (and (and (and (and (and (and (and (and (and (and (and (and (and (and (and (and (and (and (and (and (and (and (and (and (and (and (and (and (and (and (and (and (and (and (and (and (and (and (and (and (and (and (and (and (and (and (and (and (and (and (and (= z101_30_23_ z100_7_0_) (<= 2147483636 (+ (* sigma_93_ (- 4294967296)) z12_31_0_))) (<= z9_26_0_ 999999988)) (not (= z9_28_0_ 0))) (= (+ (* sigma_84_ (- 4294967296)) (+ z83_31_0_ z80_23_0_)) 11)) (and (not (<= z22_31_0_ 0)) ?v_3)) ?v_0) (ite (not (= (+ (+ (+ (+ ?v_7 z17_30_0_) (- z71_31_0_)) (* sigma_72_ 4294967296)) (* sigma_75_ (- 4294967296))) (- 6))) (= z61_31_0_ 1) (= z61_31_0_ 0))) (ite (= z61_0_0_ 1) (= z57_7_0_ 1) (= z57_7_0_ 0))) ?v_2) (<= z9_26_0_ 5288)) (not (or (not (<= 1 z17_30_0_)) ?v_1))) (ite ?v_2 (= z34_31_0_ 1) (= z34_31_0_ 0))) (ite (= z34_0_0_ 1) (= z27_7_0_ 1) (= z27_7_0_ 0))) (not (ite (or (and (not ?v_4) ?v_3) (and ?v_4 ?v_5)) (not (<= z9_28_0_ z22_31_0_)) ?v_5))) (not (and (not (<= z17_30_0_ 2)) ?v_6))) (<= z12_31_0_ 999999988)) (and (not (<= 18446744073709551616 z3_63_0_)) (<= 0 z3_63_0_))) (and (not (<= 536870912 z3_28_0_)) (<= 0 z3_28_0_))) (and (not (<= 34359738368 z3_63_29_)) (<= 0 z3_63_29_))) (= (+ (+ (- z3_28_0_) z3_63_0_) (* z3_63_29_ (- 536870912))) 0)) (and (not (<= 18446744073709551616 z9_63_0_)) (<= 0 z9_63_0_))) (and (not (<= 536870912 z9_28_0_)) (<= 0 z9_28_0_))) (and (not (<= 34359738368 z9_63_29_)) (<= 0 z9_63_29_))) (= (+ (+ (- z9_28_0_) z9_63_0_) (* z9_63_29_ (- 536870912))) 0)) (and (not (<= 4294967296 z12_31_0_)) (<= 0 z12_31_0_))) (and (not (<= 2147483648 z17_30_0_)) (<= 0 z17_30_0_))) (and (not (<= 18446744073709551616 z22_63_0_)) (<= 0 z22_63_0_))) (and (not (<= 4294967296 z22_31_0_)) (<= 0 z22_31_0_))) (and (not (<= 4294967296 z22_63_32_)) (<= 0 z22_63_32_))) (= (+ (+ (- z22_31_0_) z22_63_0_) (* z22_63_32_ (- 4294967296))) 0)) (and (not (<= 4294967296 z27_31_0_)) (<= 0 z27_31_0_))) (and (not (<= 256 z27_7_0_)) (<= 0 z27_7_0_))) (and (not (<= 16777216 z27_31_8_)) (<= 0 z27_31_8_))) (= (+ (+ (- z27_7_0_) z27_31_0_) (* z27_31_8_ (- 256))) 0)) (and (not (<= 4294967296 z34_31_0_)) (<= 0 z34_31_0_))) (and (not (<= 2 z34_0_0_)) (<= 0 z34_0_0_))) (and (not (<= 2147483648 z34_31_1_)) (<= 0 z34_31_1_))) (= (+ (+ (- z34_0_0_) z34_31_0_) (* z34_31_1_ (- 2))) 0)) (and (not (<= 134217728 z9_26_0_)) (<= 0 z9_26_0_))) (and (not (<= 137438953472 z9_63_27_)) (<= 0 z9_63_27_))) (= (+ (+ (- z9_26_0_) z9_63_0_) (* z9_63_27_ (- 134217728))) 0)) (and (not (<= 4294967296 z57_31_0_)) (<= 0 z57_31_0_))) (and (not (<= 256 z57_7_0_)) (<= 0 z57_7_0_))) (and (not (<= 16777216 z57_31_8_)) (<= 0 z57_31_8_))) (= (+ (+ (- z57_7_0_) z57_31_0_) (* z57_31_8_ (- 256))) 0)) (and (not (<= 4294967296 z61_31_0_)) (<= 0 z61_31_0_))) (and (not (<= 2 z61_0_0_)) (<= 0 z61_0_0_))) (and (not (<= 2147483648 z61_31_1_)) (<= 0 z61_31_1_))) (= (+ (+ (- z61_0_0_) z61_31_0_) (* z61_31_1_ (- 2))) 0)) (and (not (<= 4294967296 z67_31_0_)) (<= 0 z67_31_0_))) (and (not (<= 16777216 z67_23_0_)) (<= 0 z67_23_0_))) (and (not (<= 256 z67_31_24_)) (<= 0 z67_31_24_))) (= (+ (+ ?v_7 z67_31_0_) (* z67_31_24_ (- 16777216))) 0)) (and (not (<= 4294967296 z71_31_0_)) (<= 0 z71_31_0_))) (and (not (<= 4294967296 z80_31_0_)) (<= 0 z80_31_0_))) (and (not (<= 16777216 z80_23_0_)) (<= 0 z80_23_0_))) (and (not (<= 256 z80_31_24_)) (<= 0 z80_31_24_))) (= (+ (+ (- z80_23_0_) z80_31_0_) (* z80_31_24_ (- 16777216))) 0)) (and (not (<= 4294967296 z83_31_0_)) (<= 0 z83_31_0_))) (and (not (<= 16777216 z57_23_0_)) (<= 0 z57_23_0_))) (and (not (<= 256 z57_31_24_)) (<= 0 z57_31_24_))) (= (+ (+ (- z57_23_0_) z57_31_0_) (* z57_31_24_ (- 16777216))) 0)) (and (not (<= 16777216 z27_23_0_)) (<= 0 z27_23_0_))) (and (not (<= 256 z27_31_24_)) (<= 0 z27_31_24_))) (= (+ (+ (- z27_23_0_) z27_31_0_) (* z27_31_24_ (- 16777216))) 0)) (and (not (<= 256 z100_7_0_)) (<= 0 z100_7_0_))) (and (not (<= 2147483648 z101_30_0_)) (<= 0 z101_30_0_))) (and (not (<= 8388608 z101_22_0_)) (<= 0 z101_22_0_))) (and (not (<= 256 z101_30_23_)) (<= 0 z101_30_23_))) (= (+ (+ (- z101_22_0_) z101_30_0_) (* z101_30_23_ (- 8388608))) 0)))))))))))
(check-sat)
(exit)
